db/inputs/20238198062383629631138826764126167133.smt2
(set-logic QF_FP)
(declare-const x0 (_ FloatingPoint 11 53))
(declare-const x1 (_ FloatingPoint 11 53))
(declare-const x2 (_ FloatingPoint 11 53))
(declare-const x3 (_ FloatingPoint 11 53))
(declare-const x4 (_ FloatingPoint 11 53))
(declare-const x5 (_ FloatingPoint 11 53))
(declare-const x6 (_ FloatingPoint 11 53))
(declare-const x7 (_ FloatingPoint 11 53))
(declare-const x8 (_ FloatingPoint 11 53))
(declare-const x9 (_ FloatingPoint 11 53))
(declare-const x10 (_ FloatingPoint 11 53))
(declare-const x11 (_ FloatingPoint 11 53))
(declare-const x12 (_ FloatingPoint 11 53))
(declare-const x13 (_ FloatingPoint 11 53))
(declare-const x14 (_ FloatingPoint 11 53))
(declare-const x15 (_ FloatingPoint 11 53))
(declare-const x16 (_ FloatingPoint 11 53))
(declare-const x17 (_ FloatingPoint 11 53))
(declare-const x18 (_ FloatingPoint 11 53))
(declare-const x19 (_ FloatingPoint 11 53))
(declare-const x20 (_ FloatingPoint 11 53))
(declare-const x21 (_ FloatingPoint 11 53))
(declare-const x22 (_ FloatingPoint 11 53))
(declare-const x23 (_ FloatingPoint 11 53))
(assert (fp.leq (fp.div RNE x4 x2) (fp.sub RNE x1 x10)))
(assert (fp.eq (fp.mul RNE x18 x3) (fp.neg x7)))
(assert (fp.leq (fp.sub RNE x16 x12) (fp.mul RNE x19 x10)))
(assert (fp.geq (fp.div RNE x7 x14) (fp.neg x2)))
(assert (fp.leq (fp.neg x13) (fp.mul RNE x8 x0)))
(assert (fp.lt (fp.div RNE x6 x6) (fp.sub RNE x3 x6)))
(assert (fp.geq (fp.neg x22) (fp.sub RNE x16 x22)))
(assert (fp.geq (fp.div RNE x5 x15) (fp.neg x15)))
(assert (fp.leq (fp.neg x5) (fp.sub RNE x22 x15)))
(assert (fp.lt (fp.add RNE x18 x0) (fp.div RNE x6 x20)))
(assert (fp.eq (fp.mul RNE x16 x12) (fp.sub RNE x4 x18)))
(assert (fp.gt (fp.sub RNE x3 x2) (fp.div RNE x9 x23)))
(check-sat)
