db/data/20238198062383629631138826764126167133.z3.out
-------------------
2500.110762273
